10
2 0 37
3 0 144
3 2 104
4 0 24
4 2 20
4 3 49
5 0 125
5 1 156
5 2 62
5 3 49
5 4 13
6 0 6
6 1 10
6 2 129
6 3 76
6 4 109
6 5 97
7 1 116
7 2 79
7 3 80
7 4 49
7 6 50
8 0 69
8 3 123
8 4 20
8 5 117
8 6 55
8 7 6
9 1 2
9 3 99
9 4 118
9 5 24
9 7 73
9 8 132
